p tdp 16 64
1 4
1 6
1 10
1 12
1 14
1 15
2 4
2 5
2 6
2 7
2 8
2 9
2 13
2 14
2 15
3 4
3 7
3 8
3 10
3 11
3 15
4 8
4 9
4 10
4 12
4 13
5 7
5 9
5 10
5 11
5 12
5 13
5 14
5 15
5 16
6 7
6 10
6 12
6 14
6 16
7 8
7 9
7 11
7 15
8 12
8 13
8 14
9 10
9 11
9 12
9 14
9 15
10 11
10 12
10 14
10 15
11 12
11 15
11 16
12 13
12 14
12 15
13 14
14 15
